Maximize
F - f1 - f2

Subject to
F - 15.0y119 - 5.0y230 - 5.0y134 - 15.0y250 - 15.0y24 - 15.0y220 - 15.0y179 - 15.0y115 - 15.0y125 - 5.0y168 - 20.0y12 - 5.0y52 - 5.0y133 - 5.0y66 - 10.0y233 - 5.0y272 - 10.0y245 - 10.0y265 - 15.0y280 - 20.0y293 - 10.0y137 - 10.0y11 - 5.0y199 = 0
f1 - 0.005200s119 - 0.005200s230 - 0.005200s134 - 0.005200s250 - 0.005200s24 - 0.005200s220 - 0.005200s179 - 0.005200s115 - 0.005200s125 - 0.005200s168 - 0.005200s12 - 0.005200s52 - 0.005200s133 - 0.005200s66 - 0.005200s233 - 0.005200s272 - 0.005200s245 - 0.005200s265 - 0.005200s280 - 0.005200s293 - 0.005200s137 - 0.005200s11 - 0.005200s199  = 0
f2 - 0.32y119 - 0.61y230 - 2.62y134 - 0.19y250 - 0.59y24 - 0.93y220 - 0.50y179 - 0.53y115 - 3.31y125 - 1.35y168 - 0.18y12 - 0.04y52 - 0.41y133 - 1.45y66 - 1.69y233 - 0.07y272 - 1.35y245 - 1.28y265 - 0.46y280 - 1.58y293 - 0.85y137 - 1.30y11 - 0.36y199 = 0

x287x119x1 + x287x230x1 + x287x134x1 + x287x24x1 + x287x179x1 + x287x115x1 + x287x12x1 + x287x133x1 + x287x233x1 + x287x272x1 + x287x245x1 + x287x265x1 + x287x280x1 + x287x293x1 + x287x11x1 + x287x199x1 
<= 1
x151x233x1 + x151x245x1 + x151x265x1 + x151x280x1 + x151x293x1 + x151x11x1 + x151x199x1 
<= 1
x87x12x1 + x87x133x1 + x87x233x1 + x87x272x1 + x87x245x1 + x87x265x1 + x87x280x1 + x87x293x1 + x87x11x1 + x87x199x1 
<= 1
x228x52x2 + x228x233x2 + x228x265x2 + x228x280x2 + x228x293x2 + x228x137x2 + x228x11x2 
<= 2
x151x52x2 + x151x233x2 + x151x265x2 + x151x280x2 + x151x293x2 + x151x137x2 + x151x11x2 
<= 1
x301x119x2 + x301x250x2 + x301x12x2 + x301x52x2 + x301x66x2 + x301x233x2 + x301x272x2 + x301x265x2 + x301x280x2 + x301x293x2 + x301x137x2 + x301x11x2 
<= 1
x87x52x3 + x87x66x3 + x87x245x3 + x87x137x3 
<= 1
x301x230x3 + x301x250x3 + x301x52x3 + x301x66x3 + x301x245x3 + x301x137x3 
<= 1
x56x52x3 + x56x66x3 + x56x245x3 + x56x137x3 
<= 2
x287x119x1 
- x119x0x1
- x119x272x1 - x119x245x1 - x119x265x1 - x119x280x1 - x119x293x1 - x119x11x1 - x119x199x1 
= 0
x301x119x2 
- x119x0x2
- x119x250x2 - x119x52x2 - x119x272x2 - x119x265x2 - x119x280x2 - x119x293x2 - x119x137x2 - x119x11x2 
= 0


x287x230x1 
- x230x0x1
- x230x24x1 - x230x179x1 - x230x115x1 - x230x280x1 - x230x199x1 
= 0

x301x230x3 
- x230x0x3
- x230x52x3 
= 0

x287x134x1 
- x134x0x1
- x134x233x1 - x134x245x1 - x134x265x1 - x134x293x1 - x134x11x1 
= 0




x301x250x2 + x119x250x2 
- x250x0x2
- x250x52x2 - x250x272x2 - x250x280x2 - x250x293x2 - x250x137x2 - x250x11x2 
= 0
x301x250x3 
- x250x0x3
- x250x52x3 - x250x137x3 
= 0

x287x24x1 + x230x24x1 
- x24x0x1
- x24x179x1 - x24x115x1 - x24x280x1 - x24x199x1 
= 0





- x220x66x2 - x220x233x2 - x220x272x2 - x220x265x2 - x220x293x2 - x220x137x2 - x220x11x2 
= 0


x287x179x1 + x230x179x1 + x24x179x1 
- x179x0x1
- x179x115x1 - x179x280x1 - x179x199x1 
= 0



x287x115x1 + x230x115x1 + x24x115x1 + x179x115x1 
- x115x0x1
- x115x280x1 - x115x199x1 
= 0









- x168x66x2 - x168x233x2 - x168x265x2 - x168x293x2 - x168x137x2 - x168x11x2 
= 0


x287x12x1 + x87x12x1 
- x12x0x1
- x12x272x1 - x12x11x1 
= 0
x301x12x2 
- x12x0x2
- x12x272x2 - x12x137x2 - x12x11x2 
= 0



x228x52x2 + x151x52x2 + x301x52x2 + x119x52x2 + x250x52x2 
- x52x0x2

= 0
x87x52x3 + x301x52x3 + x56x52x3 + x230x52x3 + x250x52x3 
- x52x0x3

= 0

x287x133x1 + x87x133x1 
- x133x0x1
- x133x11x1 
= 0




x301x66x2 + x220x66x2 + x168x66x2 
- x66x0x2
- x66x233x2 - x66x265x2 - x66x293x2 - x66x137x2 - x66x11x2 
= 0
x87x66x3 + x301x66x3 + x56x66x3 
- x66x0x3
- x66x245x3 - x66x137x3 
= 0

x287x233x1 + x151x233x1 + x87x233x1 + x134x233x1 
- x233x0x1
- x233x293x1 - x233x11x1 
= 0
x228x233x2 + x151x233x2 + x301x233x2 + x220x233x2 + x168x233x2 + x66x233x2 
- x233x0x2
- x233x293x2 - x233x11x2 
= 0


x287x272x1 + x87x272x1 + x119x272x1 + x12x272x1 
- x272x0x1

= 0
x301x272x2 + x119x272x2 + x250x272x2 + x220x272x2 + x12x272x2 
- x272x0x2

= 0


x287x245x1 + x151x245x1 + x87x245x1 + x119x245x1 + x134x245x1 
- x245x0x1
- x245x293x1 - x245x11x1 
= 0

x87x245x3 + x301x245x3 + x56x245x3 + x66x245x3 
- x245x0x3

= 0

x287x265x1 + x151x265x1 + x87x265x1 + x119x265x1 + x134x265x1 
- x265x0x1
- x265x11x1 
= 0
x228x265x2 + x151x265x2 + x301x265x2 + x119x265x2 + x220x265x2 + x168x265x2 + x66x265x2 
- x265x0x2
- x265x11x2 
= 0


x287x280x1 + x151x280x1 + x87x280x1 + x119x280x1 + x230x280x1 + x24x280x1 + x179x280x1 + x115x280x1 
- x280x0x1
- x280x199x1 
= 0
x228x280x2 + x151x280x2 + x301x280x2 + x119x280x2 + x250x280x2 
- x280x0x2

= 0


x287x293x1 + x151x293x1 + x87x293x1 + x119x293x1 + x134x293x1 + x233x293x1 + x245x293x1 
- x293x0x1

= 0
x228x293x2 + x151x293x2 + x301x293x2 + x119x293x2 + x250x293x2 + x220x293x2 + x168x293x2 + x66x293x2 + x233x293x2 
- x293x0x2

= 0



x228x137x2 + x151x137x2 + x301x137x2 + x119x137x2 + x250x137x2 + x220x137x2 + x168x137x2 + x12x137x2 + x66x137x2 
- x137x0x2

= 0
x87x137x3 + x301x137x3 + x56x137x3 + x250x137x3 + x66x137x3 
- x137x0x3

= 0

x287x11x1 + x151x11x1 + x87x11x1 + x119x11x1 + x134x11x1 + x12x11x1 + x133x11x1 + x233x11x1 + x245x11x1 + x265x11x1 
- x11x0x1

= 0
x228x11x2 + x151x11x2 + x301x11x2 + x119x11x2 + x250x11x2 + x220x11x2 + x168x11x2 + x12x11x2 + x66x11x2 + x233x11x2 + x265x11x2 
- x11x0x2

= 0


x287x199x1 + x151x199x1 + x87x199x1 + x119x199x1 + x230x199x1 + x24x199x1 + x179x199x1 + x115x199x1 + x280x199x1 
- x199x0x1

= 0



1y119 - x287x119x1 = 0
1y119 - x301x119x2 = 0
1y230 - x287x230x1 = 0
1y230 - x301x230x3 = 0
2y134 - x287x134x1 = 0
1y250 - x301x250x2 - x119x250x2 = 0
1y250 - x301x250x3 = 0
2y24 - x287x24x1 - x230x24x1 = 0
2y220 = 0
2y179 - x287x179x1 - x230x179x1 - x24x179x1 = 0
2y115 - x287x115x1 - x230x115x1 - x24x115x1 - x179x115x1 = 0
2y125 = 0
2y168 = 0
1y12 - x287x12x1 - x87x12x1 = 0
1y12 - x301x12x2 = 0
1y52 - x228x52x2 - x151x52x2 - x301x52x2 - x119x52x2 - x250x52x2 = 0
1y52 - x87x52x3 - x301x52x3 - x56x52x3 - x230x52x3 - x250x52x3 = 0
2y133 - x287x133x1 - x87x133x1 = 0
1y66 - x301x66x2 - x220x66x2 - x168x66x2 = 0
1y66 - x87x66x3 - x301x66x3 - x56x66x3 = 0
1y233 - x287x233x1 - x151x233x1 - x87x233x1 - x134x233x1 = 0
1y233 - x228x233x2 - x151x233x2 - x301x233x2 - x220x233x2 - x168x233x2 - x66x233x2 = 0
1y272 - x287x272x1 - x87x272x1 - x119x272x1 - x12x272x1 = 0
1y272 - x301x272x2 - x119x272x2 - x250x272x2 - x220x272x2 - x12x272x2 = 0
1y245 - x287x245x1 - x151x245x1 - x87x245x1 - x119x245x1 - x134x245x1 = 0
1y245 - x87x245x3 - x301x245x3 - x56x245x3 - x66x245x3 = 0
1y265 - x287x265x1 - x151x265x1 - x87x265x1 - x119x265x1 - x134x265x1 = 0
1y265 - x228x265x2 - x151x265x2 - x301x265x2 - x119x265x2 - x220x265x2 - x168x265x2 - x66x265x2 = 0
1y280 - x287x280x1 - x151x280x1 - x87x280x1 - x119x280x1 - x230x280x1 - x24x280x1 - x179x280x1 - x115x280x1 = 0
1y280 - x228x280x2 - x151x280x2 - x301x280x2 - x119x280x2 - x250x280x2 = 0
1y293 - x287x293x1 - x151x293x1 - x87x293x1 - x119x293x1 - x134x293x1 - x233x293x1 - x245x293x1 = 0
1y293 - x228x293x2 - x151x293x2 - x301x293x2 - x119x293x2 - x250x293x2 - x220x293x2 - x168x293x2 - x66x293x2 - x233x293x2 = 0
1y137 - x228x137x2 - x151x137x2 - x301x137x2 - x119x137x2 - x250x137x2 - x220x137x2 - x168x137x2 - x12x137x2 - x66x137x2 = 0
1y137 - x87x137x3 - x301x137x3 - x56x137x3 - x250x137x3 - x66x137x3 = 0
1y11 - x287x11x1 - x151x11x1 - x87x11x1 - x119x11x1 - x134x11x1 - x12x11x1 - x133x11x1 - x233x11x1 - x245x11x1 - x265x11x1 = 0
1y11 - x228x11x2 - x151x11x2 - x301x11x2 - x119x11x2 - x250x11x2 - x220x11x2 - x168x11x2 - x12x11x2 - x66x11x2 - x233x11x2 - x265x11x2 = 0
2y199 - x287x199x1 - x151x199x1 - x87x199x1 - x119x199x1 - x230x199x1 - x24x199x1 - x179x199x1 - x115x199x1 - x280x199x1 = 0

s287 - s119 + 7.855742z287z119z1 <= 5.93
s287 - s230 + 7.767929z287z230z1 <= 5.93
s287 - s134 + 7.602621z287z134z1 <= 5.93
s287 - s24 + 7.766971z287z24z1 <= 5.93
s287 - s179 + 7.781770z287z179z1 <= 5.93
s287 - s115 + 7.776392z287z115z1 <= 5.93
s287 - s12 + 7.984021z287z12z1 <= 5.93
s287 - s133 + 7.983239z287z133z1 <= 5.93
s287 - s233 + 7.792759z287z233z1 <= 5.93
s287 - s272 + 8.015549z287z272z1 <= 5.93
s287 - s245 + 7.855934z287z245z1 <= 5.93
s287 - s265 + 7.870134z287z265z1 <= 5.93
s287 - s280 + 7.780514z287z280z1 <= 5.93
s287 - s293 + 7.819201z287z293z1 <= 5.93
s287 - s11 + 7.874742z287z11z1 <= 5.93
s287 - s199 + 7.794616z287z199z1 <= 5.93
s228 - s52 + 8.241172z228z52z2 <= 6.81
s228 - s233 + 8.406470z228z233z2 <= 6.81
s228 - s265 + 8.446527z228z265z2 <= 6.81
s228 - s280 + 8.047275z228z280z2 <= 6.81
s228 - s293 + 8.427406z228z293z2 <= 6.81
s228 - s137 + 8.490827z228z137z2 <= 6.81
s228 - s11 + 8.459362z228z11z2 <= 6.81
s151 - s52 + 8.376283z151z52z2 <= 7.13
s151 - s233 + 8.423416z151z233z1 <= 7.13
s151 - s233 + 8.423416z151z233z2 <= 7.13
s151 - s245 + 8.451902z151z245z1 <= 7.13
s151 - s265 + 8.459260z151z265z1 <= 7.13
s151 - s265 + 8.459260z151z265z2 <= 7.13
s151 - s280 + 8.411427z151z280z1 <= 7.13
s151 - s280 + 8.411427z151z280z2 <= 7.13
s151 - s293 + 8.442552z151z293z1 <= 7.13
s151 - s293 + 8.442552z151z293z2 <= 7.13
s151 - s137 + 8.506453z151z137z2 <= 7.13
s151 - s11 + 8.472162z151z11z1 <= 7.13
s151 - s11 + 8.472162z151z11z2 <= 7.13
s151 - s199 + 8.415838z151z199z1 <= 7.13
s87 - s12 + 8.318358z87z12z1 <= 7.06
s87 - s52 + 8.261214z87z52z3 <= 7.06
s87 - s133 + 8.341526z87z133z1 <= 7.06
s87 - s66 + 8.301630z87z66z3 <= 7.06
s87 - s233 + 8.305806z87z233z1 <= 7.06
s87 - s272 + 8.351601z87z272z1 <= 7.06
s87 - s245 + 8.318970z87z245z1 <= 7.06
s87 - s245 + 8.318970z87z245z3 <= 7.06
s87 - s265 + 8.323552z87z265z1 <= 7.06
s87 - s280 + 8.380324z87z280z1 <= 7.06
s87 - s293 + 8.319406z87z293z1 <= 7.06
s87 - s137 + 8.359533z87z137z3 <= 7.06
s87 - s11 + 8.337652z87z11z1 <= 7.06
s87 - s199 + 8.380395z87z199z1 <= 7.06
s301 - s119 + 8.099509z301z119z2 <= 6.95
s301 - s230 + 8.039878z301z230z3 <= 6.95
s301 - s250 + 8.166000z301z250z2 <= 6.95
s301 - s250 + 8.166000z301z250z3 <= 6.95
s301 - s12 + 8.316662z301z12z2 <= 6.95
s301 - s52 + 8.131548z301z52z2 <= 6.95
s301 - s52 + 8.131548z301z52z3 <= 6.95
s301 - s66 + 8.349632z301z66z2 <= 6.95
s301 - s66 + 8.349632z301z66z3 <= 6.95
s301 - s233 + 8.352646z301z233z2 <= 6.95
s301 - s272 + 8.348531z301z272z2 <= 6.95
s301 - s245 + 8.366443z301z245z3 <= 6.95
s301 - s265 + 8.370280z301z265z2 <= 6.95
s301 - s280 + 8.099509z301z280z2 <= 6.95
s301 - s293 + 8.367234z301z293z2 <= 6.95
s301 - s137 + 8.397605z301z137z2 <= 6.95
s301 - s137 + 8.397605z301z137z3 <= 6.95
s301 - s11 + 8.384637z301z11z2 <= 6.95
s56 - s52 + 8.371998z56z52z3 <= 7.06
s56 - s66 + 8.244174z56z66z3 <= 7.06
s56 - s245 + 8.268861z56z245z3 <= 7.06
s56 - s137 + 8.343354z56z137z3 <= 7.06
s119 - s250 + 9.171803z119z250z2 <= 8.10
s119 - s52 + 9.142688z119z52z2 <= 8.10
s119 - s272 + 9.365498z119z272z1 <= 8.10
s119 - s272 + 9.365498z119z272z2 <= 8.10
s119 - s245 + 9.454276z119z245z1 <= 8.10
s119 - s265 + 9.452830z119z265z1 <= 8.10
s119 - s265 + 9.452830z119z265z2 <= 8.10
s119 - s280 + 9.340370z119z280z1 <= 8.10
s119 - s280 + 9.340370z119z280z2 <= 8.10
s119 - s293 + 9.470285z119z293z1 <= 8.10
s119 - s293 + 9.470285z119z293z2 <= 8.10
s119 - s137 + 9.453397z119z137z2 <= 8.10
s119 - s11 + 9.467696z119z11z1 <= 8.10
s119 - s11 + 9.467696z119z11z2 <= 8.10
s119 - s199 + 9.333334z119z199z1 <= 8.10
s230 - s24 + 9.158856z230z24z1 <= 8.14
s230 - s179 + 9.154907z230z179z1 <= 8.14
s230 - s115 + 9.161082z230z115z1 <= 8.14
s230 - s52 + 9.338886z230z52z3 <= 8.14
s230 - s280 + 9.202893z230z280z1 <= 8.14
s230 - s199 + 9.203246z230z199z1 <= 8.14
s134 - s233 + 9.340904z134z233z1 <= 8.15
s134 - s245 + 9.405517z134z245z1 <= 8.15
s134 - s265 + 9.420143z134z265z1 <= 8.15
s134 - s293 + 9.367050z134z293z1 <= 8.15
s134 - s11 + 9.423333z134z11z1 <= 8.15
s250 - s52 + 9.252111z250z52z2 <= 8.18
s250 - s52 + 9.252111z250z52z3 <= 8.18
s250 - s272 + 9.374365z250z272z2 <= 8.18
s250 - s280 + 9.490984z250z280z2 <= 8.18
s250 - s293 + 9.513933z250z293z2 <= 8.18
s250 - s137 + 9.475297z250z137z2 <= 8.18
s250 - s137 + 9.475297z250z137z3 <= 8.18
s250 - s11 + 9.501801z250z11z2 <= 8.18
s24 - s179 + 9.230000z24z179z1 <= 8.21
s24 - s115 + 9.219428z24z115z1 <= 8.21
s24 - s280 + 9.254722z24z280z1 <= 8.21
s24 - s199 + 9.257140z24z199z1 <= 8.21
s220 - s66 + 9.346148z220z66z2 <= 8.25
s220 - s233 + 9.387437z220z233z2 <= 8.25
s220 - s272 + 9.403479z220z272z2 <= 8.25
s220 - s265 + 9.324535z220z265z2 <= 8.25
s220 - s293 + 9.372384z220z293z2 <= 8.25
s220 - s137 + 9.318638z220z137z2 <= 8.25
s220 - s11 + 9.336923z220z11z2 <= 8.25
s179 - s115 + 9.284907z179z115z1 <= 8.27
s179 - s280 + 9.326569z179z280z1 <= 8.27
s179 - s199 + 9.323749z179z199z1 <= 8.27
s115 - s280 + 9.332687z115z280z1 <= 8.29
s115 - s199 + 9.332164z115z199z1 <= 8.29
s168 - s66 + 9.341082z168z66z2 <= 8.32
s168 - s233 + 9.381463z168z233z2 <= 8.32
s168 - s265 + 9.355901z168z265z2 <= 8.32
s168 - s293 + 9.368534z168z293z2 <= 8.32
s168 - s137 + 9.429949z168z137z2 <= 8.32
s168 - s11 + 9.368073z168z11z2 <= 8.32
s12 - s272 + 9.363333z12z272z1 <= 8.33
s12 - s272 + 9.363333z12z272z2 <= 8.33
s12 - s137 + 9.490139z12z137z2 <= 8.33
s12 - s11 + 9.551610z12z11z1 <= 8.33
s12 - s11 + 9.551610z12z11z2 <= 8.33
s133 - s11 + 9.547067z133z11z1 <= 8.38
s66 - s233 + 9.432688z66z233z2 <= 8.39
s66 - s245 + 9.416667z66z245z3 <= 8.39
s66 - s265 + 9.430552z66z265z2 <= 8.39
s66 - s293 + 9.417488z66z293z2 <= 8.39
s66 - s137 + 9.512566z66z137z2 <= 8.39
s66 - s137 + 9.512566z66z137z3 <= 8.39
s66 - s11 + 9.437140z66z11z2 <= 8.39
s233 - s293 + 9.466666z233z293z1 <= 8.44
s233 - s293 + 9.466666z233z293z2 <= 8.44
s233 - s11 + 9.522462z233z11z1 <= 8.44
s233 - s11 + 9.522462z233z11z2 <= 8.44
s245 - s293 + 9.512688z245z293z1 <= 8.47
s245 - s11 + 9.491082z245z11z1 <= 8.47
s265 - s11 + 9.494906z265z11z1 <= 8.48
s265 - s11 + 9.494906z265z11z2 <= 8.48
s280 - s199 + 9.534907z280z199z1 <= 8.52

x287x119x1 - 1z287z119z1 <= 0
x287x230x1 - 1z287z230z1 <= 0
x287x134x1 - 2z287z134z1 <= 0
x287x24x1 - 2z287z24z1 <= 0
x287x179x1 - 2z287z179z1 <= 0
x287x115x1 - 2z287z115z1 <= 0
x287x12x1 - 1z287z12z1 <= 0
x287x133x1 - 2z287z133z1 <= 0
x287x233x1 - 1z287z233z1 <= 0
x287x272x1 - 1z287z272z1 <= 0
x287x245x1 - 1z287z245z1 <= 0
x287x265x1 - 1z287z265z1 <= 0
x287x280x1 - 1z287z280z1 <= 0
x287x293x1 - 1z287z293z1 <= 0
x287x11x1 - 1z287z11z1 <= 0
x287x199x1 - 2z287z199z1 <= 0
x228x52x2 - 1z228z52z2 <= 0
x228x233x2 - 1z228z233z2 <= 0
x228x265x2 - 1z228z265z2 <= 0
x228x280x2 - 1z228z280z2 <= 0
x228x293x2 - 1z228z293z2 <= 0
x228x137x2 - 1z228z137z2 <= 0
x228x11x2 - 1z228z11z2 <= 0
x151x52x2 - 1z151z52z2 <= 0
x151x233x1 - 1z151z233z1 <= 0
x151x233x2 - 1z151z233z2 <= 0
x151x245x1 - 1z151z245z1 <= 0
x151x265x1 - 1z151z265z1 <= 0
x151x265x2 - 1z151z265z2 <= 0
x151x280x1 - 1z151z280z1 <= 0
x151x280x2 - 1z151z280z2 <= 0
x151x293x1 - 1z151z293z1 <= 0
x151x293x2 - 1z151z293z2 <= 0
x151x137x2 - 1z151z137z2 <= 0
x151x11x1 - 1z151z11z1 <= 0
x151x11x2 - 1z151z11z2 <= 0
x151x199x1 - 2z151z199z1 <= 0
x87x12x1 - 1z87z12z1 <= 0
x87x52x3 - 1z87z52z3 <= 0
x87x133x1 - 2z87z133z1 <= 0
x87x66x3 - 1z87z66z3 <= 0
x87x233x1 - 1z87z233z1 <= 0
x87x272x1 - 1z87z272z1 <= 0
x87x245x1 - 1z87z245z1 <= 0
x87x245x3 - 1z87z245z3 <= 0
x87x265x1 - 1z87z265z1 <= 0
x87x280x1 - 1z87z280z1 <= 0
x87x293x1 - 1z87z293z1 <= 0
x87x137x3 - 1z87z137z3 <= 0
x87x11x1 - 1z87z11z1 <= 0
x87x199x1 - 2z87z199z1 <= 0
x301x119x2 - 1z301z119z2 <= 0
x301x230x3 - 1z301z230z3 <= 0
x301x250x2 - 1z301z250z2 <= 0
x301x250x3 - 1z301z250z3 <= 0
x301x12x2 - 1z301z12z2 <= 0
x301x52x2 - 1z301z52z2 <= 0
x301x52x3 - 1z301z52z3 <= 0
x301x66x2 - 1z301z66z2 <= 0
x301x66x3 - 1z301z66z3 <= 0
x301x233x2 - 1z301z233z2 <= 0
x301x272x2 - 1z301z272z2 <= 0
x301x245x3 - 1z301z245z3 <= 0
x301x265x2 - 1z301z265z2 <= 0
x301x280x2 - 1z301z280z2 <= 0
x301x293x2 - 1z301z293z2 <= 0
x301x137x2 - 1z301z137z2 <= 0
x301x137x3 - 1z301z137z3 <= 0
x301x11x2 - 1z301z11z2 <= 0
x56x52x3 - 1z56z52z3 <= 0
x56x66x3 - 1z56z66z3 <= 0
x56x245x3 - 1z56z245z3 <= 0
x56x137x3 - 1z56z137z3 <= 0
x119x250x2 - 1z119z250z2 <= 0
x119x52x2 - 1z119z52z2 <= 0
x119x272x1 - 1z119z272z1 <= 0
x119x272x2 - 1z119z272z2 <= 0
x119x245x1 - 1z119z245z1 <= 0
x119x265x1 - 1z119z265z1 <= 0
x119x265x2 - 1z119z265z2 <= 0
x119x280x1 - 1z119z280z1 <= 0
x119x280x2 - 1z119z280z2 <= 0
x119x293x1 - 1z119z293z1 <= 0
x119x293x2 - 1z119z293z2 <= 0
x119x137x2 - 1z119z137z2 <= 0
x119x11x1 - 1z119z11z1 <= 0
x119x11x2 - 1z119z11z2 <= 0
x119x199x1 - 2z119z199z1 <= 0
x119x0x1 <= 1
x119x0x2 <= 1
x230x24x1 - 2z230z24z1 <= 0
x230x179x1 - 2z230z179z1 <= 0
x230x115x1 - 2z230z115z1 <= 0
x230x52x3 - 1z230z52z3 <= 0
x230x280x1 - 1z230z280z1 <= 0
x230x199x1 - 2z230z199z1 <= 0
x230x0x1 <= 1
x230x0x3 <= 1
x134x233x1 - 1z134z233z1 <= 0
x134x245x1 - 1z134z245z1 <= 0
x134x265x1 - 1z134z265z1 <= 0
x134x293x1 - 1z134z293z1 <= 0
x134x11x1 - 1z134z11z1 <= 0
x134x0x1 <= 2
x250x52x2 - 1z250z52z2 <= 0
x250x52x3 - 1z250z52z3 <= 0
x250x272x2 - 1z250z272z2 <= 0
x250x280x2 - 1z250z280z2 <= 0
x250x293x2 - 1z250z293z2 <= 0
x250x137x2 - 1z250z137z2 <= 0
x250x137x3 - 1z250z137z3 <= 0
x250x11x2 - 1z250z11z2 <= 0
x250x0x2 <= 1
x250x0x3 <= 1
x24x179x1 - 2z24z179z1 <= 0
x24x115x1 - 2z24z115z1 <= 0
x24x280x1 - 1z24z280z1 <= 0
x24x199x1 - 2z24z199z1 <= 0
x24x0x1 <= 2
x220x66x2 - 1z220z66z2 <= 0
x220x233x2 - 1z220z233z2 <= 0
x220x272x2 - 1z220z272z2 <= 0
x220x265x2 - 1z220z265z2 <= 0
x220x293x2 - 1z220z293z2 <= 0
x220x137x2 - 1z220z137z2 <= 0
x220x11x2 - 1z220z11z2 <= 0
x220x0x2 <= 2
x179x115x1 - 2z179z115z1 <= 0
x179x280x1 - 1z179z280z1 <= 0
x179x199x1 - 2z179z199z1 <= 0
x179x0x1 <= 2
x115x280x1 - 1z115z280z1 <= 0
x115x199x1 - 2z115z199z1 <= 0
x115x0x1 <= 2
x125x0x3 <= 2
x168x66x2 - 1z168z66z2 <= 0
x168x233x2 - 1z168z233z2 <= 0
x168x265x2 - 1z168z265z2 <= 0
x168x293x2 - 1z168z293z2 <= 0
x168x137x2 - 1z168z137z2 <= 0
x168x11x2 - 1z168z11z2 <= 0
x168x0x2 <= 2
x12x272x1 - 1z12z272z1 <= 0
x12x272x2 - 1z12z272z2 <= 0
x12x137x2 - 1z12z137z2 <= 0
x12x11x1 - 1z12z11z1 <= 0
x12x11x2 - 1z12z11z2 <= 0
x12x0x1 <= 1
x12x0x2 <= 1
x52x0x2 <= 1
x52x0x3 <= 1
x133x11x1 - 1z133z11z1 <= 0
x133x0x1 <= 2
x66x233x2 - 1z66z233z2 <= 0
x66x245x3 - 1z66z245z3 <= 0
x66x265x2 - 1z66z265z2 <= 0
x66x293x2 - 1z66z293z2 <= 0
x66x137x2 - 1z66z137z2 <= 0
x66x137x3 - 1z66z137z3 <= 0
x66x11x2 - 1z66z11z2 <= 0
x66x0x2 <= 1
x66x0x3 <= 1
x233x293x1 - 1z233z293z1 <= 0
x233x293x2 - 1z233z293z2 <= 0
x233x11x1 - 1z233z11z1 <= 0
x233x11x2 - 1z233z11z2 <= 0
x233x0x1 <= 1
x233x0x2 <= 1
x272x0x1 <= 1
x272x0x2 <= 1
x245x293x1 - 1z245z293z1 <= 0
x245x11x1 - 1z245z11z1 <= 0
x245x0x1 <= 1
x245x0x3 <= 1
x265x11x1 - 1z265z11z1 <= 0
x265x11x2 - 1z265z11z2 <= 0
x265x0x1 <= 1
x265x0x2 <= 1
x280x199x1 - 2z280z199z1 <= 0
x280x0x1 <= 1
x280x0x2 <= 1
x293x0x1 <= 1
x293x0x2 <= 1
x137x0x2 <= 1
x137x0x3 <= 1
x11x0x1 <= 1
x11x0x2 <= 1
x199x0x1 <= 2

s119 - 6.00z287z119z1 >= 0
s119 - 6.00z301z119z2 >= 0
s230 - 6.00z287z230z1 >= 0
s230 - 6.00z301z230z3 >= 0
s134 - 6.00z287z134z1 >= 0
s250 - 6.00z301z250z2 >= 0
s250 - 6.00z301z250z3 >= 0
s250 - 6.00z119z250z2 >= 0
s24 - 6.00z287z24z1 >= 0
s24 - 6.00z230z24z1 >= 0
s179 - 6.00z287z179z1 >= 0
s179 - 6.00z230z179z1 >= 0
s179 - 6.00z24z179z1 >= 0
s115 - 6.00z287z115z1 >= 0
s115 - 6.00z230z115z1 >= 0
s115 - 6.00z24z115z1 >= 0
s115 - 6.00z179z115z1 >= 0
s12 - 6.00z287z12z1 >= 0
s12 - 6.00z87z12z1 >= 0
s12 - 6.00z301z12z2 >= 0
s52 - 6.00z228z52z2 >= 0
s52 - 6.00z151z52z2 >= 0
s52 - 6.00z87z52z3 >= 0
s52 - 6.00z301z52z2 >= 0
s52 - 6.00z301z52z3 >= 0
s52 - 6.00z56z52z3 >= 0
s52 - 6.00z119z52z2 >= 0
s52 - 6.00z230z52z3 >= 0
s52 - 6.00z250z52z2 >= 0
s52 - 6.00z250z52z3 >= 0
s133 - 6.00z287z133z1 >= 0
s133 - 6.00z87z133z1 >= 0
s66 - 6.00z87z66z3 >= 0
s66 - 6.00z301z66z2 >= 0
s66 - 6.00z301z66z3 >= 0
s66 - 6.00z56z66z3 >= 0
s66 - 6.00z220z66z2 >= 0
s66 - 6.00z168z66z2 >= 0
s233 - 6.00z287z233z1 >= 0
s233 - 6.00z228z233z2 >= 0
s233 - 6.00z151z233z1 >= 0
s233 - 6.00z151z233z2 >= 0
s233 - 6.00z87z233z1 >= 0
s233 - 6.00z301z233z2 >= 0
s233 - 6.00z134z233z1 >= 0
s233 - 6.00z220z233z2 >= 0
s233 - 6.00z168z233z2 >= 0
s233 - 6.00z66z233z2 >= 0
s272 - 6.00z287z272z1 >= 0
s272 - 6.00z87z272z1 >= 0
s272 - 6.00z301z272z2 >= 0
s272 - 6.00z119z272z1 >= 0
s272 - 6.00z119z272z2 >= 0
s272 - 6.00z250z272z2 >= 0
s272 - 6.00z220z272z2 >= 0
s272 - 6.00z12z272z1 >= 0
s272 - 6.00z12z272z2 >= 0
s245 - 6.00z287z245z1 >= 0
s245 - 6.00z151z245z1 >= 0
s245 - 6.00z87z245z1 >= 0
s245 - 6.00z87z245z3 >= 0
s245 - 6.00z301z245z3 >= 0
s245 - 6.00z56z245z3 >= 0
s245 - 6.00z119z245z1 >= 0
s245 - 6.00z134z245z1 >= 0
s245 - 6.00z66z245z3 >= 0
s265 - 6.00z287z265z1 >= 0
s265 - 6.00z228z265z2 >= 0
s265 - 6.00z151z265z1 >= 0
s265 - 6.00z151z265z2 >= 0
s265 - 6.00z87z265z1 >= 0
s265 - 6.00z301z265z2 >= 0
s265 - 6.00z119z265z1 >= 0
s265 - 6.00z119z265z2 >= 0
s265 - 6.00z134z265z1 >= 0
s265 - 6.00z220z265z2 >= 0
s265 - 6.00z168z265z2 >= 0
s265 - 6.00z66z265z2 >= 0
s280 - 6.00z287z280z1 >= 0
s280 - 6.00z228z280z2 >= 0
s280 - 6.00z151z280z1 >= 0
s280 - 6.00z151z280z2 >= 0
s280 - 6.00z87z280z1 >= 0
s280 - 6.00z301z280z2 >= 0
s280 - 6.00z119z280z1 >= 0
s280 - 6.00z119z280z2 >= 0
s280 - 6.00z230z280z1 >= 0
s280 - 6.00z250z280z2 >= 0
s280 - 6.00z24z280z1 >= 0
s280 - 6.00z179z280z1 >= 0
s280 - 6.00z115z280z1 >= 0
s293 - 6.00z287z293z1 >= 0
s293 - 6.00z228z293z2 >= 0
s293 - 6.00z151z293z1 >= 0
s293 - 6.00z151z293z2 >= 0
s293 - 6.00z87z293z1 >= 0
s293 - 6.00z301z293z2 >= 0
s293 - 6.00z119z293z1 >= 0
s293 - 6.00z119z293z2 >= 0
s293 - 6.00z134z293z1 >= 0
s293 - 6.00z250z293z2 >= 0
s293 - 6.00z220z293z2 >= 0
s293 - 6.00z168z293z2 >= 0
s293 - 6.00z66z293z2 >= 0
s293 - 6.00z233z293z1 >= 0
s293 - 6.00z233z293z2 >= 0
s293 - 6.00z245z293z1 >= 0
s137 - 6.00z228z137z2 >= 0
s137 - 6.00z151z137z2 >= 0
s137 - 6.00z87z137z3 >= 0
s137 - 6.00z301z137z2 >= 0
s137 - 6.00z301z137z3 >= 0
s137 - 6.00z56z137z3 >= 0
s137 - 6.00z119z137z2 >= 0
s137 - 6.00z250z137z2 >= 0
s137 - 6.00z250z137z3 >= 0
s137 - 6.00z220z137z2 >= 0
s137 - 6.00z168z137z2 >= 0
s137 - 6.00z12z137z2 >= 0
s137 - 6.00z66z137z2 >= 0
s137 - 6.00z66z137z3 >= 0
s11 - 6.00z287z11z1 >= 0
s11 - 6.00z228z11z2 >= 0
s11 - 6.00z151z11z1 >= 0
s11 - 6.00z151z11z2 >= 0
s11 - 6.00z87z11z1 >= 0
s11 - 6.00z301z11z2 >= 0
s11 - 6.00z119z11z1 >= 0
s11 - 6.00z119z11z2 >= 0
s11 - 6.00z134z11z1 >= 0
s11 - 6.00z250z11z2 >= 0
s11 - 6.00z220z11z2 >= 0
s11 - 6.00z168z11z2 >= 0
s11 - 6.00z12z11z1 >= 0
s11 - 6.00z12z11z2 >= 0
s11 - 6.00z133z11z1 >= 0
s11 - 6.00z66z11z2 >= 0
s11 - 6.00z233z11z1 >= 0
s11 - 6.00z233z11z2 >= 0
s11 - 6.00z245z11z1 >= 0
s11 - 6.00z265z11z1 >= 0
s11 - 6.00z265z11z2 >= 0
s199 - 6.00z287z199z1 >= 0
s199 - 6.00z151z199z1 >= 0
s199 - 6.00z87z199z1 >= 0
s199 - 6.00z119z199z1 >= 0
s199 - 6.00z230z199z1 >= 0
s199 - 6.00z24z199z1 >= 0
s199 - 6.00z179z199z1 >= 0
s199 - 6.00z115z199z1 >= 0
s199 - 6.00z280z199z1 >= 0

Bounds
s287 = 5.931933
s228 = 6.814037
s151 = 7.126394
s118 = 7.365542
s214 = 7.433333
s238 = 7.402669
s87 = 7.064237
s158 = 7.398837
s51 = 7.455901
s301 = 6.945597
s56 = 7.062087
s246 = 7.578988
s281 = 7.605544
s93 = 7.852617
7.100000 <= s119 <= 8.100000
7.140000 <= s230 <= 8.140000
7.150000 <= s134 <= 8.150000
7.180000 <= s250 <= 8.180000
7.210000 <= s24 <= 8.210000
7.250000 <= s220 <= 8.250000
7.270000 <= s179 <= 8.270000
7.290000 <= s115 <= 8.290000
7.300000 <= s125 <= 8.300000
7.320000 <= s168 <= 8.320000
7.330000 <= s12 <= 8.330000
7.380000 <= s52 <= 8.380000
7.380000 <= s133 <= 8.380000
7.390000 <= s66 <= 8.390000
7.440000 <= s233 <= 8.440000
7.440000 <= s272 <= 8.440000
7.470000 <= s245 <= 8.470000
7.480000 <= s265 <= 8.480000
7.520000 <= s280 <= 8.520000
7.520000 <= s293 <= 8.520000
7.540000 <= s137 <= 8.540000
7.570000 <= s11 <= 8.570000
7.620000 <= s199 <= 8.620000

General
x287x119x1 x287x230x1 x287x134x1 x287x24x1 x287x179x1 x287x115x1 x287x12x1 x287x133x1 x287x233x1 x287x272x1 x287x245x1 x287x265x1 x287x280x1 x287x293x1 x287x11x1 x287x199x1 
x228x52x2 x228x233x2 x228x265x2 x228x280x2 x228x293x2 x228x137x2 x228x11x2 
x151x52x2 x151x233x1 x151x233x2 x151x245x1 x151x265x1 x151x265x2 x151x280x1 x151x280x2 x151x293x1 x151x293x2 x151x137x2 x151x11x1 x151x11x2 x151x199x1 



x87x12x1 x87x52x3 x87x133x1 x87x66x3 x87x233x1 x87x272x1 x87x245x1 x87x245x3 x87x265x1 x87x280x1 x87x293x1 x87x137x3 x87x11x1 x87x199x1 


x301x119x2 x301x230x3 x301x250x2 x301x250x3 x301x12x2 x301x52x2 x301x52x3 x301x66x2 x301x66x3 x301x233x2 x301x272x2 x301x245x3 x301x265x2 x301x280x2 x301x293x2 x301x137x2 x301x137x3 x301x11x2 
x56x52x3 x56x66x3 x56x245x3 x56x137x3 



x119x250x2 x119x52x2 x119x272x1 x119x272x2 x119x245x1 x119x265x1 x119x265x2 x119x280x1 x119x280x2 x119x293x1 x119x293x2 x119x137x2 x119x11x1 x119x11x2 x119x199x1 x119x0x1 x119x0x2 
x230x24x1 x230x179x1 x230x115x1 x230x52x3 x230x280x1 x230x199x1 x230x0x1 x230x0x3 
x134x233x1 x134x245x1 x134x265x1 x134x293x1 x134x11x1 x134x0x1 
x250x52x2 x250x52x3 x250x272x2 x250x280x2 x250x293x2 x250x137x2 x250x137x3 x250x11x2 x250x0x2 x250x0x3 
x24x179x1 x24x115x1 x24x280x1 x24x199x1 x24x0x1 
x220x66x2 x220x233x2 x220x272x2 x220x265x2 x220x293x2 x220x137x2 x220x11x2 x220x0x2 
x179x115x1 x179x280x1 x179x199x1 x179x0x1 
x115x280x1 x115x199x1 x115x0x1 
x125x0x3 
x168x66x2 x168x233x2 x168x265x2 x168x293x2 x168x137x2 x168x11x2 x168x0x2 
x12x272x1 x12x272x2 x12x137x2 x12x11x1 x12x11x2 x12x0x1 x12x0x2 
x52x0x2 x52x0x3 
x133x11x1 x133x0x1 
x66x233x2 x66x245x3 x66x265x2 x66x293x2 x66x137x2 x66x137x3 x66x11x2 x66x0x2 x66x0x3 
x233x293x1 x233x293x2 x233x11x1 x233x11x2 x233x0x1 x233x0x2 
x272x0x1 x272x0x2 
x245x293x1 x245x11x1 x245x0x1 x245x0x3 
x265x11x1 x265x11x2 x265x0x1 x265x0x2 
x280x199x1 x280x0x1 x280x0x2 
x293x0x1 x293x0x2 
x137x0x2 x137x0x3 
x11x0x1 x11x0x2 
x199x0x1 

Binaries
y119 y230 y134 y250 y24 y220 y179 y115 y125 y168 y12 y52 y133 y66 y233 y272 y245 y265 y280 y293 y137 y11 y199 
z287z119z1 z287z230z1 z287z134z1 z287z24z1 z287z179z1 z287z115z1 z287z12z1 z287z133z1 z287z233z1 z287z272z1 z287z245z1 z287z265z1 z287z280z1 z287z293z1 z287z11z1 z287z199z1 
z228z52z2 z228z233z2 z228z265z2 z228z280z2 z228z293z2 z228z137z2 z228z11z2 
z151z52z2 z151z233z1 z151z233z2 z151z245z1 z151z265z1 z151z265z2 z151z280z1 z151z280z2 z151z293z1 z151z293z2 z151z137z2 z151z11z1 z151z11z2 z151z199z1 



z87z12z1 z87z52z3 z87z133z1 z87z66z3 z87z233z1 z87z272z1 z87z245z1 z87z245z3 z87z265z1 z87z280z1 z87z293z1 z87z137z3 z87z11z1 z87z199z1 


z301z119z2 z301z230z3 z301z250z2 z301z250z3 z301z12z2 z301z52z2 z301z52z3 z301z66z2 z301z66z3 z301z233z2 z301z272z2 z301z245z3 z301z265z2 z301z280z2 z301z293z2 z301z137z2 z301z137z3 z301z11z2 
z56z52z3 z56z66z3 z56z245z3 z56z137z3 



z119z250z2 z119z52z2 z119z272z1 z119z272z2 z119z245z1 z119z265z1 z119z265z2 z119z280z1 z119z280z2 z119z293z1 z119z293z2 z119z137z2 z119z11z1 z119z11z2 z119z199z1 
z230z24z1 z230z179z1 z230z115z1 z230z52z3 z230z280z1 z230z199z1 
z134z233z1 z134z245z1 z134z265z1 z134z293z1 z134z11z1 
z250z52z2 z250z52z3 z250z272z2 z250z280z2 z250z293z2 z250z137z2 z250z137z3 z250z11z2 
z24z179z1 z24z115z1 z24z280z1 z24z199z1 
z220z66z2 z220z233z2 z220z272z2 z220z265z2 z220z293z2 z220z137z2 z220z11z2 
z179z115z1 z179z280z1 z179z199z1 
z115z280z1 z115z199z1 

z168z66z2 z168z233z2 z168z265z2 z168z293z2 z168z137z2 z168z11z2 
z12z272z1 z12z272z2 z12z137z2 z12z11z1 z12z11z2 

z133z11z1 
z66z233z2 z66z245z3 z66z265z2 z66z293z2 z66z137z2 z66z137z3 z66z11z2 
z233z293z1 z233z293z2 z233z11z1 z233z11z2 

z245z293z1 z245z11z1 
z265z11z1 z265z11z2 
z280z199z1 





End